100
400
277
275
272
272
269
265
264
262
262
261
261
258
257
254
252
250
250
249
248
248
247
246
246
245
244
244
244
242
240
238
236
235
235
228
223
222
216
212
211
207
202
201
201
201
201
200
192
192
189
183
181
177
174
172
171
166
166
165
163
161
159
158
148
145
145
143
140
133
132
130
124
115
113
110
108
108
106
105
104
104
103
100
100
99
97
97
91
91
87
87
78
74
73
71
66
59
51
47
47
45
